
Log started (V12.10.0.0) Fri Apr  2 11:22:48 2021

Warning, line 680: Name 's122' does not exist.

Problem 'asset.lp' read.
Read time = 0.00 sec. (0.05 ticks)
New value for default parallel thread count: 1
New value for time limit in seconds: 400
Version identifier: 12.10.0.0 | 2019-11-26 | 843d4de
CPXPARAM_Threads                                 1
CPXPARAM_TimeLimit                               400
Found incumbent of value -0.874270 after 0.00 sec. (0.03 ticks)
Tried aggregator 2 times.
MIP Presolve eliminated 35 rows and 18 columns.
MIP Presolve modified 461 coefficients.
Aggregator did 194 substitutions.
Reduced MIP has 300 rows, 292 columns, and 1223 nonzeros.
Reduced MIP has 249 binaries, 26 generals, 0 SOSs, and 0 indicators.
Presolve time = 0.00 sec. (1.53 ticks)
Probing fixed 66 vars, tightened 7 bounds.
Probing time = 0.00 sec. (0.62 ticks)
Cover probing fixed 0 vars, tightened 46 bounds.
Tried aggregator 1 time.
MIP Presolve eliminated 106 rows and 98 columns.
Reduced MIP has 194 rows, 186 columns, and 604 nonzeros.
Reduced MIP has 158 binaries, 11 generals, 0 SOSs, and 0 indicators.
Presolve time = 0.00 sec. (0.65 ticks)
Probing time = 0.00 sec. (0.21 ticks)
Tried aggregator 1 time.
Detecting symmetries...
Reduced MIP has 194 rows, 186 columns, and 604 nonzeros.
Reduced MIP has 158 binaries, 11 generals, 0 SOSs, and 0 indicators.
Presolve time = 0.00 sec. (0.43 ticks)
Probing time = 0.00 sec. (0.21 ticks)
Clique table members: 60.
MIP emphasis: balance optimality and feasibility.
MIP search method: dynamic search.
Parallel mode: none, using 1 thread.
Root relaxation solution time = 0.00 sec. (1.06 ticks)

        Nodes                                         Cuts/
   Node  Left     Objective  IInf  Best Integer    Best Bound    ItCnt     Gap

*     0+    0                           -0.8743       67.6857              --- 
      0     0       53.2341    77       -0.8743       53.2341      135     --- 
*     0+    0                           50.6122       53.2341             5.18%
      0     0       52.8059    77       50.6122      Cuts: 47      179    4.33%
*     0+    0                           52.7799       52.8059             0.05%
      0     0       52.7980    77       52.7799      Cuts: 56      216    0.03%
*     0+    0                           52.7804       52.7980             0.03%
Detecting symmetries...

Repeating presolve.
Tried aggregator 4 times.
MIP Presolve eliminated 79 rows and 86 columns.
MIP Presolve modified 21 coefficients.
Aggregator did 6 substitutions.
Reduced MIP has 109 rows, 94 columns, and 311 nonzeros.
Reduced MIP has 77 binaries, 7 generals, 0 SOSs, and 0 indicators.
Presolve time = 0.00 sec. (0.58 ticks)
Probing time = 0.00 sec. (0.09 ticks)
Cover probing fixed 0 vars, tightened 20 bounds.
Tried aggregator 1 time.
MIP Presolve eliminated 28 rows and 6 columns.
MIP Presolve modified 102 coefficients.
Reduced MIP has 81 rows, 88 columns, and 247 nonzeros.
Reduced MIP has 71 binaries, 7 generals, 0 SOSs, and 0 indicators.
Presolve time = 0.00 sec. (0.16 ticks)
Probing time = 0.00 sec. (0.07 ticks)
Tried aggregator 1 time.
MIP Presolve eliminated 2 rows and 2 columns.
Reduced MIP has 79 rows, 86 columns, and 243 nonzeros.
Reduced MIP has 70 binaries, 7 generals, 0 SOSs, and 0 indicators.
Presolve time = 0.00 sec. (0.14 ticks)
Probing time = 0.00 sec. (0.07 ticks)
Tried aggregator 1 time.
Detecting symmetries...
Reduced MIP has 79 rows, 86 columns, and 243 nonzeros.
Reduced MIP has 70 binaries, 7 generals, 0 SOSs, and 0 indicators.
Presolve time = 0.00 sec. (0.17 ticks)
Represolve time = 0.00 sec. (2.03 ticks)
Probing time = 0.00 sec. (0.07 ticks)
Clique table members: 20.
MIP emphasis: balance optimality and feasibility.
MIP search method: dynamic search.
Parallel mode: none, using 1 thread.
Root relaxation solution time = 0.00 sec. (0.74 ticks)

        Nodes                                         Cuts/
   Node  Left     Objective  IInf  Best Integer    Best Bound    ItCnt     Gap

*     0+    0                           52.7804       52.7914             0.02%
      0     0       52.7877    46       52.7804       52.7877      308    0.01%
*     0+    0                           52.7835       52.7877             0.01%

Implied bound cuts applied:  16
Mixed integer rounding cuts applied:  1
Zero-half cuts applied:  3
Multi commodity flow cuts applied:  2
Gomory fractional cuts applied:  10

Root node processing (before b&c):
  Real time             =    0.02 sec. (18.00 ticks)
Sequential b&c:
  Real time             =    0.00 sec. (0.00 ticks)
                          ------------
Total (root+branch&cut) =    0.02 sec. (18.00 ticks)

Solution pool: 5 solutions saved.

MIP - Integer optimal, tolerance (0.0001/1e-06):  Objective =  5.2783498362e+01
Current MIP best bound =  5.2787749726e+01 (gap = 0.00425136, 0.01%)
Solution time =    0.02 sec.  Iterations = 308  Nodes = 0 (1)
Deterministic time = 18.00 ticks  (720.21 ticks/sec)


Incumbent solution
Variable Name           Solution Value
F                            70.000000
f1                            0.926502
f2                           16.290000
y26                           1.000000
y53                           1.000000
y148                          1.000000
y159                          1.000000
y276                          1.000000
y48                           1.000000
y57                           1.000000
y129                          1.000000
y172                          1.000000
y100                          1.000000
y175                          1.000000
s26                           6.358534
s30                           6.000000
s37                           6.000000
s53                           6.455047
s128                          6.000000
s148                          6.464496
s159                          6.615545
s276                          6.323248
s120                          6.040000
s48                           6.655939
s57                           7.221687
s129                          7.228432
s172                          6.605123
s124                          6.390000
s100                          7.264646
s231                          6.440000
s175                          7.242161
x262x53x1                     1.000000
x86x148x1                     1.000000
x132x53x1                     1.000000
x283x172x1                    1.000000
x99x159x1                     1.000000
x267x57x2                     1.000000
x267x175x2                    1.000000
x113x129x2                    1.000000
x113x100x2                    1.000000
x222x129x2                    1.000000
x222x100x2                    1.000000
x4x48x2                       1.000000
x266x276x2                    1.000000
x86x48x2                      1.000000
x95x57x3                      1.000000
x262x276x3                    1.000000
x4x26x3                       1.000000
x132x159x3                    1.000000
x283x172x3                    1.000000
x99x175x3                     1.000000
x290x26x3                     1.000000
x290x148x3                    1.000000
x26x0x3                       2.000000
x53x0x1                       2.000000
x148x0x1                      1.000000
x148x0x3                      1.000000
x159x0x1                      1.000000
x159x0x3                      1.000000
x276x0x2                      1.000000
x276x0x3                      1.000000
x48x0x2                       2.000000
x57x0x2                       1.000000
x57x0x3                       1.000000
x129x0x2                      2.000000
x172x0x1                      1.000000
x172x0x3                      1.000000
x100x0x2                      2.000000
x175x0x2                      1.000000
x175x0x3                      1.000000
s95                           5.782542
z95z57z3                      1.000000
s267                          5.750000
z267z57z2                     1.000000
z267z129z2                    1.000000
z267z100z2                    1.000000
z267z175z2                    1.000000
s113                          5.790000
z113z129z2                    1.000000
z113z100z2                    1.000000
s222                          5.790000
z222z129z2                    1.000000
z222z100z2                    1.000000
s262                          4.832470
z262z53z1                     1.000000
z262z276z3                    1.000000
s4                            4.856050
z4z26z3                       1.000000
z4z48z2                       1.000000
s266                          4.784240
z266z276z2                    1.000000
z266z124z2                    1.000000
z266z100z2                    1.000000
s38                           4.939700
s86                           5.042010
z86z148z1                     1.000000
z86z48z2                      1.000000
s132                          5.077290
z132z53z1                     1.000000
z132z159z3                    1.000000
s283                          5.032800
z283z172z1                    1.000000
z283z172z3                    1.000000
s99                           5.235910
z99z159z1                     1.000000
z99z175z3                     1.000000
s290                          5.108790
z290z26z3                     1.000000
z290z148z3                    1.000000
All other variables in the range 1-504 are 0.
